WARNING: for repeatability, setting FPU to use double precision
============================[ Problem Statistics ]=============================
|                                                                             |
|  Number of variables:          2729                                         |
|  Number of clauses:           21000                                         |
|  Parse time:                   0.00 s                                       |
|                                                                             |
============================[ Search Statistics ]==============================
| Conflicts |          ORIGINAL         |          LEARNT          | Progress |
|           |    Vars  Clauses Literals |    Limit  Clauses Lit/Cl |          |
===============================================================================
|       100 |    2178    21000    53072 |     7700       68     11 | 20.194 % |
|       250 |    1828    21000    53072 |     8470      205     16 | 33.016 % |
===============================================================================
restarts              : 3
conflicts             : 387            (inf /sec)
decisions             : 5539           (0.00 % random) (inf /sec)
propagations          : 66785          (inf /sec)
conflict literals     : 5627           (14.59 % deleted)
Memory used           : 6.00 MB
CPU time              : 0 s

UNSATISFIABLE
